1 1 0 1 1 1 1 0 0 
0 64 44 22 27 24 18 64 37 
64 0 20 42 53 37 48 65 23 
44 20 0 18 61 19 27 19 51 
22 42 18 0 22 30 26 71 63 
27 53 61 22 0 75 69 77 33 
24 37 19 30 75 0 69 40 23 
18 48 27 26 69 69 0 53 41 
64 65 19 71 77 40 53 0 36 
37 23 51 63 33 23 41 36 0 
2 50
1P 6P 8B 3B 2P 9B 5P 4P 7P = 225